unsat
(:added-eqs                       818302
 :arith-eq-adapter                3982
 :arith-bound-propagations-lp     1168
 :arith-conflicts                 2505
 :arith-diseq                     9216
 :arith-fixed-eqs                 46969
 :arith-gcd-calls                 7
 :arith-grobner-calls             381
 :arith-grobner-conflicts         148
 :arith-horner-calls              96
 :arith-horner-conflicts          17
 :arith-horner-cross-nested-forms 33659
 :arith-lower                     255419
 :arith-make-feasible             61412
 :arith-max-columns               8025
 :arith-max-rows                  2881
 :arith-nla-add-bounds            219
 :arith-nla-lemmas                799
 :arith-nla-propagate-bounds      1221
 :arith-nla-propagate-eq          54956
 :arith-nra-calls                 82
 :arith-offset-eqs                233593
 :arith-patches                   7
 :arith-patches-success           7
 :arith-upper                     367585
 :binary-propagations             1252158
 :cnf-encoding-aux-vars           84
 :conflicts                       1039
 :decisions                       1020472
 :del-clause                      2335
 :elim-unconstrained              1187
 :final-checks                    790
 :max-memory                      145.65
 :memory                          103.34
 :minimized-lits                  773
 :mk-bool-var                     21151
 :mk-clause                       6982
 :mk-clause-binary                117292
 :nlsat-conflicts                 74306
 :nlsat-decisions                 438425
 :nlsat-propagations              1698426
 :nlsat-restarts                  3
 :nlsat-stages                    513305
 :num-allocs                      24077323609.00
 :num-checks                      2
 :propagations                    1394675
 :restarts                        8
 :rlimit-count                    25690596
 :solve-eqs-elim-vars             703
 :solve-eqs-steps                 3675
 :time                            20.94
 :total-time                      20.98)
